400 1584 
1 5 1
1 7 1
1 10 1
1 11 1
1 12 1
1 14 1
1 18 1
1 24 1
1 26 1
1 39 1
1 40 1
1 45 1
1 56 1
1 62 1
1 72 1
1 73 1
1 85 1
1 93 1
1 98 1
1 102 1
1 116 1
1 117 1
1 145 1
1 156 1
1 158 1
1 185 1
1 191 1
1 198 1
1 204 1
1 209 1
1 238 1
1 253 1
1 259 1
1 271 1
1 313 1
1 382 1
2 5 1
2 6 1
2 8 1
2 15 1
2 17 1
2 22 1
2 29 1
2 36 1
2 71 1
2 77 1
2 78 1
2 135 1
2 149 1
2 151 1
2 160 1
2 191 1
2 215 1
2 310 1
3 5 1
3 6 1
3 7 1
3 10 1
3 26 1
3 32 1
3 33 1
3 42 1
3 57 1
3 61 1
3 65 1
3 69 1
3 75 1
3 78 1
3 86 1
3 95 1
3 114 1
3 157 1
3 176 1
3 182 1
3 195 1
3 208 1
3 225 1
3 263 1
3 288 1
3 292 1
3 304 1
3 316 1
3 322 1
3 345 1
3 352 1
3 370 1
3 372 1
3 378 1
3 387 1
3 398 1
3 400 1
4 5 1
4 6 1
4 16 1
4 18 1
4 28 1
4 38 1
4 136 1
4 139 1
4 181 1
4 212 1
4 250 1
4 260 1
4 275 1
5 6 1
5 7 1
5 8 1
5 9 1
5 10 1
5 12 1
5 14 1
5 23 1
5 25 1
5 28 1
5 33 1
5 40 1
5 41 1
5 49 1
5 50 1
5 51 1
5 58 1
5 59 1
5 60 1
5 72 1
5 73 1
5 84 1
5 86 1
5 88 1
5 96 1
5 99 1
5 110 1
5 115 1
5 119 1
5 120 1
5 129 1
5 143 1
5 167 1
5 169 1
5 180 1
5 211 1
5 219 1
5 238 1
5 248 1
5 287 1
5 288 1
5 293 1
5 332 1
5 377 1
5 384 1
5 392 1
6 7 1
6 8 1
6 9 1
6 10 1
6 11 1
6 13 1
6 14 1
6 15 1
6 23 1
6 24 1
6 28 1
6 30 1
6 43 1
6 44 1
6 115 1
6 147 1
6 184 1
6 196 1
6 218 1
6 274 1
6 278 1
6 285 1
6 290 1
6 293 1
6 296 1
6 309 1
6 391 1
7 8 1
7 9 1
7 11 1
7 12 1
7 15 1
7 17 1
7 19 1
7 22 1
7 23 1
7 25 1
7 26 1
7 27 1
7 36 1
7 37 1
7 40 1
7 43 1
7 44 1
7 49 1
7 53 1
7 55 1
7 58 1
7 64 1
7 71 1
7 78 1
7 88 1
7 89 1
7 94 1
7 124 1
7 125 1
7 130 1
7 140 1
7 141 1
7 146 1
7 147 1
7 149 1
7 158 1
7 162 1
7 189 1
7 190 1
7 200 1
7 230 1
7 251 1
7 254 1
7 256 1
7 257 1
7 272 1
7 282 1
7 285 1
7 305 1
7 330 1
7 332 1
7 344 1
7 363 1
8 9 1
8 13 1
8 19 1
8 20 1
8 27 1
8 29 1
8 45 1
8 67 1
8 81 1
8 83 1
8 90 1
8 94 1
8 96 1
8 113 1
8 122 1
8 129 1
8 147 1
8 253 1
8 272 1
8 275 1
8 282 1
8 290 1
8 315 1
8 329 1
8 339 1
8 342 1
8 381 1
8 383 1
9 12 1
9 15 1
9 17 1
9 21 1
9 22 1
9 24 1
9 26 1
9 30 1
9 31 1
9 32 1
9 37 1
9 39 1
9 40 1
9 46 1
9 59 1
9 63 1
9 64 1
9 65 1
9 67 1
9 70 1
9 73 1
9 79 1
9 82 1
9 83 1
9 84 1
9 87 1
9 97 1
9 99 1
9 103 1
9 104 1
9 109 1
9 114 1
9 132 1
9 134 1
9 135 1
9 139 1
9 140 1
9 148 1
9 153 1
9 164 1
9 165 1
9 179 1
9 195 1
9 201 1
9 214 1
9 234 1
9 236 1
9 238 1
9 243 1
9 244 1
9 254 1
9 258 1
9 268 1
9 272 1
9 307 1
9 323 1
9 345 1
9 353 1
9 355 1
9 380 1
9 397 1
10 11 1
10 16 1
10 30 1
10 42 1
10 51 1
10 54 1
10 61 1
10 74 1
10 90 1
10 93 1
10 103 1
10 123 1
10 124 1
10 132 1
10 150 1
10 166 1
10 170 1
10 172 1
10 178 1
10 205 1
10 286 1
10 308 1
10 320 1
11 13 1
11 18 1
11 19 1
11 23 1
11 45 1
11 46 1
11 52 1
11 53 1
11 63 1
11 66 1
11 102 1
11 117 1
11 126 1
11 145 1
11 150 1
11 159 1
11 229 1
11 297 1
11 314 1
11 350 1
12 13 1
12 17 1
12 20 1
12 22 1
12 27 1
12 29 1
12 31 1
12 36 1
12 41 1
12 61 1
12 68 1
12 69 1
12 71 1
12 72 1
12 76 1
12 83 1
12 85 1
12 108 1
12 132 1
12 145 1
12 152 1
12 153 1
12 185 1
12 187 1
12 191 1
12 207 1
12 224 1
12 237 1
12 262 1
12 339 1
12 392 1
12 394 1
13 14 1
13 18 1
13 27 1
13 32 1
13 33 1
13 35 1
13 36 1
13 39 1
13 47 1
13 62 1
13 67 1
13 82 1
13 84 1
13 128 1
13 133 1
13 164 1
13 172 1
13 177 1
13 192 1
13 193 1
13 209 1
13 210 1
13 219 1
13 220 1
13 229 1
13 248 1
13 280 1
13 303 1
13 310 1
13 338 1
13 354 1
13 355 1
13 378 1
13 381 1
13 383 1
13 399 1
14 16 1
14 21 1
14 30 1
14 31 1
14 34 1
14 42 1
14 46 1
14 47 1
14 48 1
14 50 1
14 55 1
14 59 1
14 60 1
14 64 1
14 69 1
14 79 1
14 88 1
14 89 1
14 103 1
14 107 1
14 110 1
14 111 1
14 130 1
14 163 1
14 190 1
14 194 1
14 197 1
14 209 1
14 228 1
14 254 1
14 255 1
14 273 1
14 277 1
14 300 1
14 306 1
14 309 1
14 317 1
14 336 1
14 338 1
14 341 1
14 342 1
14 376 1
14 390 1
14 393 1
15 16 1
15 21 1
15 34 1
15 35 1
15 66 1
15 93 1
15 112 1
15 148 1
15 182 1
15 262 1
15 334 1
15 337 1
15 346 1
15 360 1
16 20 1
16 21 1
16 43 1
16 57 1
16 80 1
16 99 1
16 110 1
16 123 1
16 134 1
16 135 1
16 142 1
16 173 1
16 174 1
16 216 1
16 237 1
16 256 1
16 264 1
16 289 1
16 303 1
16 337 1
16 376 1
17 25 1
17 101 1
17 144 1
17 152 1
18 19 1
18 20 1
18 28 1
18 33 1
18 34 1
18 35 1
18 61 1
18 77 1
18 79 1
18 81 1
18 86 1
18 95 1
18 97 1
18 117 1
18 122 1
18 125 1
18 165 1
18 194 1
18 195 1
18 198 1
18 201 1
18 208 1
18 227 1
18 228 1
18 231 1
18 236 1
18 252 1
18 271 1
18 290 1
18 294 1
18 308 1
18 347 1
18 379 1
18 385 1
19 34 1
19 50 1
19 55 1
19 82 1
19 89 1
19 105 1
19 117 1
19 138 1
19 144 1
19 161 1
19 166 1
19 185 1
19 196 1
19 248 1
19 261 1
19 340 1
20 29 1
20 58 1
20 60 1
20 142 1
20 153 1
20 161 1
20 202 1
21 44 1
21 125 1
21 173 1
21 198 1
21 232 1
21 331 1
21 380 1
22 25 1
22 38 1
22 91 1
22 180 1
22 189 1
22 281 1
23 24 1
23 41 1
23 57 1
23 68 1
23 93 1
23 111 1
23 119 1
23 128 1
23 153 1
23 196 1
23 216 1
23 226 1
23 230 1
23 268 1
23 280 1
23 357 1
24 37 1
24 52 1
24 53 1
24 116 1
24 150 1
24 154 1
24 289 1
24 321 1
25 38 1
25 43 1
25 45 1
25 54 1
25 67 1
25 84 1
25 104 1
25 144 1
25 241 1
25 296 1
25 315 1
25 337 1
25 365 1
26 49 1
26 162 1
26 274 1
26 275 1
26 319 1
26 333 1
27 32 1
27 54 1
27 68 1
27 92 1
27 183 1
27 197 1
27 312 1
27 390 1
28 186 1
28 226 1
28 275 1
29 31 1
29 80 1
29 82 1
29 86 1
29 102 1
29 131 1
29 151 1
29 197 1
29 302 1
29 316 1
29 388 1
30 39 1
30 47 1
30 59 1
30 100 1
30 105 1
30 112 1
30 124 1
30 137 1
30 149 1
30 151 1
30 161 1
30 180 1
30 184 1
30 212 1
31 80 1
31 110 1
31 154 1
31 170 1
31 188 1
31 240 1
31 248 1
31 265 1
31 327 1
32 35 1
32 52 1
32 56 1
32 87 1
32 167 1
33 322 1
34 41 1
34 56 1
34 222 1
34 227 1
34 295 1
34 360 1
34 380 1
34 381 1
35 37 1
35 62 1
35 100 1
35 105 1
35 120 1
35 127 1
35 334 1
36 38 1
36 44 1
36 46 1
36 47 1
36 53 1
36 57 1
36 63 1
36 65 1
36 66 1
36 69 1
36 70 1
36 72 1
36 98 1
36 101 1
36 108 1
36 109 1
36 126 1
36 129 1
36 138 1
36 145 1
36 223 1
36 255 1
36 261 1
36 299 1
37 49 1
37 51 1
37 64 1
37 76 1
37 116 1
37 174 1
37 291 1
37 323 1
38 42 1
38 58 1
38 68 1
38 140 1
38 148 1
38 312 1
38 359 1
39 70 1
39 77 1
39 98 1
39 129 1
39 136 1
39 139 1
39 168 1
39 171 1
39 190 1
39 221 1
40 48 1
40 51 1
40 76 1
40 85 1
40 91 1
40 100 1
40 106 1
40 143 1
40 176 1
40 181 1
40 206 1
40 235 1
40 299 1
40 322 1
40 347 1
40 349 1
40 367 1
40 397 1
41 90 1
41 116 1
41 131 1
41 143 1
41 156 1
41 176 1
41 187 1
41 245 1
41 265 1
41 313 1
41 343 1
41 364 1
42 48 1
42 52 1
42 55 1
42 63 1
42 92 1
42 155 1
42 187 1
42 247 1
42 272 1
42 320 1
42 333 1
42 385 1
43 87 1
43 120 1
43 121 1
43 218 1
43 274 1
43 283 1
43 321 1
44 48 1
44 54 1
44 96 1
44 137 1
44 154 1
44 169 1
44 239 1
44 242 1
44 252 1
44 315 1
44 319 1
44 388 1
45 75 1
45 80 1
45 102 1
45 137 1
45 243 1
45 285 1
45 304 1
46 106 1
46 126 1
46 128 1
46 132 1
46 159 1
46 232 1
46 233 1
46 273 1
46 311 1
46 326 1
46 330 1
47 56 1
47 76 1
47 97 1
47 105 1
47 107 1
47 247 1
47 262 1
47 271 1
47 291 1
47 335 1
48 50 1
48 85 1
48 95 1
48 169 1
48 199 1
48 231 1
48 236 1
48 324 1
48 358 1
48 382 1
48 396 1
49 134 1
49 350 1
49 363 1
50 70 1
50 74 1
50 92 1
50 118 1
50 163 1
50 194 1
50 223 1
50 255 1
50 259 1
50 297 1
50 370 1
50 384 1
50 386 1
51 75 1
51 87 1
51 130 1
51 148 1
51 162 1
51 163 1
51 177 1
51 219 1
51 226 1
51 241 1
51 245 1
51 250 1
51 299 1
51 353 1
51 378 1
52 309 1
52 317 1
52 362 1
53 109 1
53 198 1
53 199 1
53 251 1
54 74 1
54 103 1
54 107 1
55 60 1
55 65 1
55 81 1
55 91 1
55 174 1
55 216 1
55 221 1
55 242 1
55 324 1
55 334 1
55 380 1
56 133 1
57 316 1
58 62 1
58 79 1
58 89 1
58 98 1
58 99 1
58 100 1
58 113 1
58 128 1
58 186 1
58 217 1
58 234 1
58 301 1
59 219 1
59 310 1
59 383 1
60 122 1
60 134 1
60 270 1
61 66 1
61 77 1
61 158 1
61 364 1
62 75 1
62 112 1
62 114 1
62 140 1
62 160 1
62 179 1
62 211 1
62 223 1
62 234 1
62 240 1
62 253 1
62 284 1
62 300 1
62 314 1
62 317 1
62 328 1
62 346 1
62 374 1
63 88 1
63 94 1
63 106 1
63 191 1
63 278 1
63 322 1
63 386 1
64 106 1
64 290 1
65 73 1
65 81 1
65 115 1
65 155 1
65 224 1
65 253 1
65 400 1
66 121 1
67 74 1
67 78 1
67 90 1
67 91 1
67 101 1
67 123 1
67 127 1
67 143 1
67 150 1
67 172 1
67 203 1
67 211 1
67 212 1
67 221 1
67 245 1
67 257 1
67 260 1
67 267 1
67 287 1
67 315 1
67 318 1
67 348 1
67 385 1
68 183 1
68 244 1
68 298 1
68 303 1
69 97 1
69 112 1
69 123 1
69 127 1
69 200 1
69 205 1
69 311 1
69 375 1
69 400 1
70 71 1
70 141 1
70 156 1
70 181 1
70 215 1
70 258 1
70 269 1
70 304 1
70 305 1
70 311 1
71 118 1
71 136 1
71 193 1
71 201 1
71 204 1
71 224 1
71 300 1
71 306 1
72 94 1
72 127 1
72 131 1
72 141 1
72 228 1
72 265 1
72 269 1
72 291 1
72 304 1
72 367 1
73 154 1
73 165 1
73 199 1
73 204 1
73 205 1
73 209 1
73 217 1
74 83 1
74 118 1
74 138 1
74 172 1
74 258 1
75 146 1
75 175 1
75 210 1
75 214 1
75 308 1
75 341 1
75 356 1
76 114 1
76 146 1
76 158 1
76 226 1
76 277 1
76 291 1
76 301 1
77 144 1
77 235 1
78 104 1
78 218 1
78 343 1
79 136 1
79 318 1
79 346 1
80 109 1
80 125 1
80 157 1
80 222 1
80 273 1
80 319 1
80 336 1
81 133 1
81 149 1
81 166 1
81 216 1
81 266 1
81 300 1
81 302 1
81 324 1
81 329 1
81 349 1
81 386 1
82 95 1
82 146 1
82 207 1
82 235 1
82 321 1
82 362 1
82 368 1
82 373 1
83 92 1
83 96 1
83 119 1
83 122 1
83 147 1
83 186 1
83 323 1
83 325 1
83 363 1
84 108 1
84 152 1
84 164 1
84 178 1
84 189 1
84 192 1
84 196 1
84 215 1
84 257 1
84 286 1
84 352 1
84 355 1
84 375 1
85 107 1
85 183 1
85 206 1
85 229 1
85 237 1
85 276 1
85 292 1
85 305 1
85 348 1
85 350 1
85 373 1
86 115 1
86 170 1
86 175 1
86 259 1
86 267 1
86 328 1
86 358 1
87 169 1
87 206 1
87 231 1
87 246 1
87 249 1
87 264 1
87 352 1
89 113 1
89 130 1
89 142 1
89 188 1
89 197 1
89 244 1
89 326 1
89 347 1
90 157 1
90 163 1
90 203 1
90 348 1
90 386 1
91 252 1
91 279 1
91 363 1
91 371 1
91 374 1
91 389 1
92 182 1
92 277 1
92 368 1
93 104 1
93 210 1
93 221 1
93 224 1
94 131 1
94 183 1
94 342 1
95 184 1
95 258 1
96 111 1
96 203 1
97 353 1
98 171 1
98 217 1
98 220 1
98 303 1
98 356 1
99 101 1
99 160 1
99 182 1
99 185 1
99 236 1
99 364 1
99 377 1
99 396 1
100 108 1
100 139 1
100 165 1
100 171 1
100 190 1
100 266 1
100 377 1
100 396 1
101 326 1
101 357 1
101 365 1
102 379 1
103 171 1
103 174 1
103 201 1
103 222 1
103 306 1
104 269 1
104 299 1
104 332 1
105 111 1
105 137 1
105 202 1
105 263 1
105 301 1
105 313 1
105 334 1
105 339 1
105 354 1
105 368 1
105 371 1
105 372 1
106 155 1
106 170 1
106 263 1
107 184 1
108 118 1
108 119 1
108 286 1
109 168 1
109 192 1
109 244 1
109 336 1
110 254 1
110 263 1
110 298 1
110 317 1
110 374 1
110 376 1
111 113 1
111 161 1
111 210 1
111 282 1
111 371 1
112 271 1
113 121 1
113 213 1
113 276 1
114 175 1
114 188 1
114 233 1
114 323 1
114 329 1
114 365 1
114 366 1
115 314 1
116 175 1
116 199 1
116 297 1
116 335 1
117 124 1
117 151 1
117 331 1
117 350 1
117 379 1
118 138 1
118 192 1
118 215 1
119 120 1
119 168 1
119 332 1
119 361 1
120 121 1
120 173 1
120 176 1
120 228 1
120 339 1
121 126 1
121 141 1
121 177 1
121 233 1
121 289 1
122 133 1
122 282 1
122 341 1
123 142 1
123 195 1
123 276 1
123 287 1
123 398 1
124 306 1
125 135 1
126 173 1
126 202 1
126 220 1
126 347 1
126 351 1
127 157 1
127 214 1
127 241 1
127 274 1
127 301 1
127 397 1
128 159 1
128 246 1
128 270 1
128 278 1
128 288 1
129 152 1
129 181 1
129 200 1
129 211 1
129 390 1
130 156 1
130 319 1
130 351 1
131 168 1
131 289 1
132 180 1
132 232 1
132 242 1
134 167 1
134 214 1
134 256 1
134 285 1
135 232 1
135 331 1
135 399 1
136 155 1
136 203 1
136 292 1
136 338 1
137 179 1
137 202 1
138 330 1
139 167 1
139 312 1
140 249 1
140 255 1
140 286 1
141 160 1
141 217 1
142 320 1
142 384 1
143 240 1
143 260 1
143 294 1
143 325 1
143 344 1
145 230 1
145 240 1
146 287 1
146 309 1
146 379 1
147 162 1
147 164 1
147 208 1
147 218 1
147 225 1
147 260 1
147 262 1
147 269 1
147 279 1
147 314 1
148 213 1
148 233 1
148 251 1
149 292 1
150 166 1
150 246 1
151 193 1
151 207 1
151 246 1
151 284 1
152 393 1
153 239 1
154 159 1
154 188 1
154 239 1
154 241 1
155 251 1
157 230 1
157 391 1
158 205 1
158 249 1
159 204 1
159 250 1
159 261 1
160 223 1
161 208 1
161 295 1
161 361 1
161 382 1
162 213 1
162 247 1
162 261 1
162 281 1
162 395 1
163 222 1
163 231 1
163 308 1
163 330 1
164 257 1
165 340 1
165 364 1
165 369 1
165 391 1
166 381 1
168 357 1
168 369 1
168 393 1
169 383 1
170 177 1
170 178 1
170 225 1
170 259 1
172 178 1
172 359 1
172 362 1
173 207 1
173 277 1
174 352 1
175 206 1
175 227 1
176 179 1
176 242 1
176 283 1
176 387 1
177 189 1
177 194 1
177 366 1
178 243 1
178 307 1
178 316 1
178 344 1
179 360 1
180 280 1
181 305 1
181 320 1
181 389 1
182 186 1
182 326 1
182 392 1
183 296 1
183 394 1
183 399 1
184 193 1
184 212 1
184 278 1
184 394 1
185 187 1
185 239 1
186 302 1
186 318 1
186 327 1
186 353 1
186 361 1
186 370 1
186 384 1
188 335 1
190 283 1
191 264 1
191 297 1
192 337 1
192 351 1
193 200 1
194 252 1
195 234 1
196 237 1
196 266 1
196 375 1
197 235 1
197 266 1
197 333 1
197 336 1
197 395 1
198 311 1
199 213 1
201 358 1
202 250 1
202 280 1
202 281 1
202 366 1
203 220 1
204 249 1
205 357 1
206 227 1
206 328 1
207 229 1
208 243 1
208 268 1
211 295 1
211 328 1
212 398 1
213 225 1
213 276 1
213 296 1
213 359 1
213 395 1
216 267 1
216 345 1
221 294 1
221 321 1
222 238 1
224 247 1
224 270 1
224 391 1
225 338 1
228 399 1
230 279 1
230 302 1
231 375 1
234 396 1
235 369 1
235 392 1
236 382 1
237 395 1
238 245 1
239 284 1
239 298 1
239 387 1
241 270 1
241 295 1
242 283 1
243 288 1
243 307 1
243 335 1
244 298 1
246 293 1
246 369 1
247 372 1
248 256 1
249 267 1
249 268 1
250 284 1
250 293 1
255 397 1
256 265 1
256 318 1
256 331 1
256 349 1
257 294 1
257 325 1
257 367 1
258 372 1
259 329 1
260 400 1
262 264 1
262 313 1
262 327 1
262 362 1
263 307 1
266 279 1
266 348 1
266 385 1
267 345 1
270 273 1
270 310 1
272 371 1
278 281 1
286 378 1
287 367 1
287 377 1
288 340 1
289 388 1
290 340 1
290 370 1
293 325 1
293 368 1
294 354 1
295 327 1
296 355 1
298 387 1
302 324 1
302 394 1
305 393 1
307 312 1
307 344 1
312 333 1
312 354 1
312 366 1
314 346 1
314 361 1
316 373 1
317 388 1
318 341 1
326 351 1
326 365 1
330 356 1
330 373 1
331 342 1
334 359 1
336 349 1
336 358 1
337 343 1
337 360 1
338 343 1
343 374 1
343 376 1
347 356 1
364 390 1
367 389 1
374 389 1
388 398 1
